20	5
0	8	7	8	2	1	6	4	3	5
1	2	15	18
2	3	15	14	19
3	3	11	19	14
4	2	17	14
5	3	12	11	9
6	2	16	21
7	4	14	18	10	12
8	1	13
9	0
10	1	16
11	2	17	13
12	1	19
13	1	20
14	1	21
15	1	21
16	1	21
17	1	21
18	1	21
19	1	21
20	1	21
21	0
0	0	0	0	0	0	0
1	9	4	3	0	0	0
2	3	3	3	0	0	0
3	8	3	1	0	0	5
4	4	4	4	5	0	0
5	9	0	0	0	5	2
6	3	0	5	0	3	2
7	7	2	0	0	0	0
8	9	0	0	4	4	2
9	7	0	4	0	2	0
10	3	4	0	0	0	1
11	2	0	4	3	0	0
12	9	2	0	1	4	0
13	6	0	3	0	3	0
14	4	1	1	3	1	5
15	2	5	0	4	0	0
16	1	1	4	1	3	0
17	4	1	0	4	0	0
18	6	0	0	0	1	2
19	2	5	2	0	5	4
20	9	0	0	0	1	0
21	0	0	0	0	0	0
10	8	7	8	7
